 c Output file from up_filter_clauses.sh 
p cnf 20 62
 -20 -5 1 0 
 -20 -14 -3 0 
 -20 17 8 0 
 -20 -7 2 0 
 -19 -18 -1 0 
 -19 -13 -9 0 
 -19 -15 -14 0 
 -19 -3 -2 0 
 -19 16 -3 0 
 -18 -17 5 0 
 -18 -8 2 0 
 -18 -5 -1 0 
 -18 -12 -7 0 
 -18 -9 -1 0 
 -18 -4 -2 0 
 -17 -13 -10 0 
 -17 15 -2 0 
 -17 -14 -13 0 
 16 -11 -2 0 
 16 4 -1 0 
 16 6 1 0 
 16 -7 -1 0 
 -16 14 13 0 
 -16 -10 2 0 
 15 -2 1 0 
 -15 6 -1 0 
 -15 -11 9 0 
 -14 5 -1 0 
 -14 -12 7 0 
 -14 5 3 0 
 -13 -7 -4 0 
 -13 -11 -6 0 
 -13 4 3 0 
 12 -10 3 0 
 12 -10 -8 0 
 12 -11 -2 0 
 -12 11 1 0 
 -12 9 -2 0 
 -12 8 5 0 
 11 9 -1 0 
 -11 8 -1 0 
 -11 9 -6 0 
 -11 -5 -3 0 
 10 5 -3 0 
 10 -9 4 0 
 10 9 4 0 
 10 8 1 0 
 -10 -7 -2 0 
 -10 6 2 0 
 -10 8 4 0 
 -9 -6 3 0 
 -9 -5 -4 0 
 8 -6 -2 0 
 8 -7 -5 0 
 8 -3 1 0 
 -8 -6 -3 0 
 -8 -4 1 0 
 -8 6 1 0 
 7 3 0 0 
 6 4 -3 0 
 5 3 -1 0 
 -5 -4 1 0 
